 200 65 
 37 18 67 89 56 1 34 44 44 22 78 47 
 72 39 78 7 26 88 98 55 2 22 92 18 
 70 55 75 86 88 16 98 72 37 28 71 47 
 68 7 12 35 13 1 8 20 36 86 94 76 
 59 11 73 70 11 88 67 20 11 66 32 9 
 36 40 18 56 1 
 47 
 1 2 3 4 5 7 8 9 11 12 13 16 
 17 18 19 20 22 25 27 28 32 33 34 35 
 37 38 39 40 41 42 43 44 48 49 50 51 
 52 53 55 58 59 60 61 62 63 64 65 
 50 
 1 2 3 4 6 8 9 10 11 12 13 14 
 15 16 17 18 19 20 21 22 25 26 27 28 
 30 31 33 34 36 39 40 41 42 43 44 45 
 47 51 52 54 55 56 57 58 59 60 62 63 
 64 65 
 56 
 1 3 5 7 8 9 10 12 13 14 15 16 
 17 18 19 21 22 23 24 25 26 27 28 29 
 31 34 35 36 37 38 39 40 41 42 43 44 
 45 46 47 48 49 50 51 52 53 54 55 56 
 57 58 59 60 62 63 64 65 
 10 
 4 8 17 21 24 29 36 37 50 58 
 2 
 5 42 
 54 
 1 2 3 4 7 8 9 10 11 12 14 15 
 16 17 18 19 20 21 22 23 24 25 26 27 
 28 29 30 31 32 33 34 35 37 38 39 40 
 41 42 43 46 47 48 49 50 51 52 53 54 
 56 57 61 63 64 65 
 47 
 1 4 6 7 8 9 11 12 13 14 15 16 
 17 20 21 22 23 24 25 26 27 28 29 30 
 32 34 35 36 38 40 43 44 46 47 48 50 
 51 53 54 56 58 59 60 61 62 63 65 
 39 
 1 3 4 5 7 8 11 13 14 16 18 19 
 22 23 24 25 26 27 29 32 33 39 40 43 
 45 46 48 49 50 51 52 54 56 57 58 59 
 61 62 64 
 38 
 1 3 6 7 10 11 12 14 17 19 20 22 
 25 26 27 28 29 31 33 34 35 36 37 40 
 42 43 44 46 47 48 51 52 54 56 58 60 
 63 65 
 62 
 1 2 3 4 5 6 7 8 9 10 11 12 
 13 14 15 16 17 18 19 20 21 22 23 24 
 25 26 27 28 29 30 31 32 33 34 35 36 
 37 38 39 40 41 42 43 44 46 47 48 49 
 50 51 52 53 54 55 56 57 59 60 62 63 
 64 65 
 12 
 17 26 31 33 38 40 42 43 45 48 52 62 
 65 
 1 2 3 4 5 6 7 8 9 10 11 12 
 13 14 15 16 17 18 19 20 21 22 23 24 
 25 26 27 28 29 30 31 32 33 34 35 36 
 37 38 39 40 41 42 43 44 45 46 47 48 
 49 50 51 52 53 54 55 56 57 58 59 60 
 61 62 63 64 65 
 40 
 1 2 3 4 5 8 10 13 14 15 17 19 
 20 22 24 25 28 29 30 31 32 33 36 37 
 38 39 40 41 42 44 46 49 54 55 56 57 
 61 62 63 64 
 60 
 1 2 3 4 6 7 8 9 10 11 12 13 
 14 15 16 17 18 19 20 22 23 25 26 27 
 28 29 30 31 32 33 34 35 36 38 39 40 
 41 42 43 44 45 46 47 49 50 51 52 53 
 54 55 56 57 58 59 60 61 62 63 64 65 
 7 
 1 7 23 55 56 58 61 
 11 
 5 6 9 14 30 33 35 43 52 57 61 
 13 
 4 8 10 11 15 17 24 36 41 44 49 58 
 61 
 19 
 1 2 4 5 6 12 17 22 23 25 29 30 
 37 38 53 58 61 63 65 
 14 
 4 7 12 23 25 30 33 35 46 47 52 54 
 56 61 
 9 
 2 24 29 35 37 40 45 50 61 
 39 
 3 5 6 7 8 9 11 12 13 14 17 18 
 20 22 23 24 25 26 28 31 33 35 37 38 
 39 41 42 43 45 50 52 56 57 58 59 60 
 61 62 65 
 39 
 1 2 4 6 10 11 12 14 15 16 17 19 
 20 21 23 25 26 27 28 32 33 35 36 39 
 40 44 46 48 50 51 54 56 57 58 59 60 
 61 63 65 
 8 
 4 15 34 38 50 62 63 64 
 45 
 2 4 5 7 9 10 12 13 15 16 17 19 
 21 22 24 25 26 27 29 30 33 34 35 38 
 41 43 44 45 46 47 48 49 50 51 52 54 
 57 58 59 60 61 62 63 64 65 
 60 
 1 2 3 4 5 6 7 8 9 10 11 12 
 13 14 15 16 17 18 19 20 21 22 23 24 
 25 27 28 29 30 31 32 33 34 35 36 38 
 39 40 41 42 43 45 46 47 48 49 50 51 
 52 54 56 57 58 59 60 61 62 63 64 65 
 4 
 16 29 60 65 
 60 
 1 3 4 5 6 7 8 11 12 13 14 15 
 16 17 18 20 21 22 23 24 25 26 27 28 
 29 30 31 32 33 34 35 36 37 38 39 40 
 41 42 43 44 45 46 47 48 49 50 52 53 
 54 55 56 57 58 59 60 61 62 63 64 65 
 33 
 2 3 5 7 8 9 11 12 13 18 19 21 
 22 23 28 31 33 35 41 42 45 46 47 50 
 51 55 56 59 60 61 62 64 65 
 3 
 5 21 30 
 54 
 2 4 6 7 8 9 11 12 13 14 15 16 
 17 19 20 21 22 23 24 25 26 27 28 30 
 31 32 33 35 36 37 38 39 40 42 43 44 
 45 46 48 49 50 51 52 53 54 55 56 57 
 59 60 61 62 64 65 
 56 
 1 2 3 4 5 6 7 9 10 11 12 13 
 14 15 16 17 18 19 20 21 22 23 24 26 
 30 31 33 34 35 37 38 39 40 41 42 43 
 44 45 46 48 49 50 51 52 53 55 56 57 
 58 59 60 61 62 63 64 65 
 34 
 1 4 5 6 7 8 10 11 12 13 16 17 
 18 19 20 23 24 27 29 32 38 39 43 45 
 49 50 51 52 53 55 56 62 64 65 
 17 
 7 9 10 15 18 19 21 24 27 29 36 37 
 39 40 41 52 63 
 48 
 1 4 6 10 11 12 13 14 15 16 17 18 
 19 20 23 24 26 27 29 31 32 33 34 35 
 36 37 38 39 40 41 43 44 47 48 49 52 
 53 54 56 57 58 59 60 61 62 63 64 65 
 64 
 1 2 3 4 5 6 7 8 9 10 11 12 
 13 14 15 16 17 18 19 20 21 22 23 24 
 25 26 27 28 29 30 31 32 33 34 35 36 
 37 38 39 40 41 42 43 44 45 46 47 48 
 49 50 51 53 54 55 56 57 58 59 60 61 
 62 63 64 65 
 62 
 1 2 3 4 5 6 7 8 9 10 11 12 
 13 14 15 16 17 19 20 21 22 23 24 25 
 27 28 29 30 31 32 33 34 35 36 37 38 
 39 40 41 42 43 44 45 47 48 49 50 51 
 52 53 54 55 56 57 58 59 60 61 62 63 
 64 65 
 13 
 7 11 14 17 19 26 37 45 50 51 57 60 
 65 
 21 
 2 3 6 9 17 28 29 30 32 33 34 35 
 36 46 48 51 56 58 59 62 65 
 8 
 29 30 33 44 59 60 62 64 
 63 
 1 2 3 4 5 6 7 8 10 11 12 13 
 14 15 16 17 18 19 20 21 22 23 24 25 
 26 27 28 29 30 31 32 33 34 35 36 37 
 38 40 41 42 43 44 45 46 47 48 49 50 
 51 52 53 54 55 56 57 58 59 60 61 62 
 63 64 65 
 9 
 9 12 18 26 28 37 45 50 57 
 18 
 7 11 12 17 19 22 27 30 32 34 36 37 
 38 41 50 52 57 61 
 5 
 20 27 48 55 65 
 27 
 1 5 9 11 15 16 19 21 24 26 29 32 
 34 36 37 38 39 41 42 43 44 45 50 51 
 53 54 56 
 7 
 21 29 31 39 49 52 55 
 45 
 1 2 3 4 5 6 8 9 12 13 14 16 
 17 20 21 22 23 24 25 26 28 30 31 33 
 34 37 39 40 41 43 44 46 48 49 52 55 
 56 57 58 59 60 61 62 63 65 
 37 
 1 2 5 7 8 9 12 13 15 17 18 19 
 21 22 23 24 25 26 27 28 29 32 35 36 
 42 43 47 48 49 50 51 54 57 59 60 63 
 64 
 11 
 2 5 12 16 29 30 31 35 38 49 50 
 53 
 2 3 4 5 7 8 9 11 12 13 16 17 
 18 19 20 21 22 23 24 25 26 27 28 29 
 30 32 33 34 36 37 38 40 41 42 43 45 
 46 47 48 49 50 51 52 53 54 56 58 59 
 60 61 62 63 65 
 9 
 12 14 18 21 28 32 42 54 57 
 29 
 1 4 5 11 16 20 24 27 29 31 32 33 
 35 36 37 40 41 43 44 46 47 49 52 53 
 54 57 58 63 64 
 2 
 13 33 
 56 
 2 3 4 5 8 9 10 11 12 13 14 15 
 16 17 18 19 20 21 22 23 25 26 27 28 
 31 32 33 34 35 36 37 38 39 40 41 42 
 43 44 45 48 49 50 51 52 53 55 56 57 
 58 59 60 61 62 63 64 65 
 49 
 1 2 3 4 5 6 7 8 11 12 13 15 
 17 18 19 20 21 22 23 26 28 29 32 33 
 34 35 36 38 39 40 41 42 43 44 45 47 
 48 50 51 52 53 54 56 57 58 59 62 63 
 65 
 45 
 1 2 4 5 7 9 11 12 13 14 16 17 
 18 19 20 21 22 24 26 28 29 30 32 33 
 34 35 36 39 41 42 43 44 45 47 50 51 
 52 53 55 56 57 59 60 61 64 
 37 
 6 7 8 9 10 11 12 13 18 19 22 23 
 24 27 28 29 31 32 33 36 38 40 42 44 
 45 46 47 48 49 55 57 60 61 62 63 64 
 65 
 53 
 1 2 4 5 6 7 8 9 11 13 14 16 
 17 18 19 20 21 23 24 25 26 27 28 29 
 30 31 32 33 34 35 36 37 38 41 42 43 
 44 45 46 47 48 49 50 53 55 57 58 59 
 60 61 63 64 65 
 22 
 1 5 8 9 11 14 16 21 25 34 35 42 
 46 47 49 54 57 60 61 62 63 65 
 58 
 1 2 3 4 5 6 8 10 11 12 13 14 
 15 16 17 18 19 20 21 22 23 24 25 26 
 27 28 29 30 31 32 33 34 36 37 38 39 
 40 42 45 46 47 48 49 50 51 52 54 55 
 56 57 58 59 60 61 62 63 64 65 
 10 
 2 6 30 35 41 42 46 49 57 64 
 58 
 1 2 3 4 5 6 7 8 9 10 11 12 
 14 15 16 18 19 20 22 23 25 27 28 30 
 31 32 33 34 35 36 37 38 39 40 41 42 
 43 44 45 46 47 49 50 51 52 53 54 55 
 56 57 58 59 60 61 62 63 64 65 
 18 
 2 7 9 12 15 18 21 23 27 29 30 32 
 33 38 51 56 62 63 
 43 
 1 3 4 5 6 8 10 12 13 14 15 16 
 17 18 20 21 22 23 24 29 30 31 32 34 
 35 37 38 39 41 42 43 45 47 54 56 57 
 58 59 60 62 63 64 65 
 40 
 1 2 4 7 8 9 15 16 18 20 23 25 
 26 27 28 29 32 35 36 37 38 39 40 41 
 43 44 46 48 49 50 51 52 54 55 56 58 
 59 62 64 65 
 17 
 3 9 11 12 13 15 18 22 34 36 39 47 
 50 52 55 60 65 
 59 
 1 2 3 4 5 6 7 8 9 10 11 12 
 13 14 15 16 17 19 20 21 22 23 24 25 
 26 27 28 29 30 31 32 33 34 36 37 38 
 39 40 42 44 45 46 47 48 49 50 51 52 
 54 55 57 58 59 60 61 62 63 64 65 
 8 
 6 34 36 41 55 57 58 59 
 53 
 1 2 3 4 5 7 8 9 10 12 13 14 
 17 18 20 21 22 23 24 26 27 29 30 31 
 32 33 35 36 37 38 39 41 42 43 44 45 
 47 49 50 51 52 53 54 56 57 58 59 60 
 61 62 63 64 65 
 35 
 2 3 5 8 9 14 16 17 18 19 20 21 
 23 24 27 30 32 34 36 38 42 43 44 46 
 48 49 50 52 53 55 56 60 61 63 64 
 20 
 2 7 10 13 19 25 26 28 37 40 43 44 
 46 47 49 51 53 55 60 62 
 50 
 1 3 4 5 6 7 9 11 13 14 15 17 
 18 19 20 21 22 24 25 27 31 32 33 34 
 35 37 38 39 41 42 43 44 45 46 48 49 
 50 51 52 54 55 57 58 59 60 61 62 63 
 64 65 
 64 
 1 2 3 4 5 6 7 8 9 10 11 12 
 13 14 15 16 17 18 19 20 21 22 23 24 
 25 26 27 28 29 30 32 33 34 35 36 37 
 38 39 40 41 42 43 44 45 46 47 48 49 
 50 51 52 53 54 55 56 57 58 59 60 61 
 62 63 64 65 
 26 
 1 2 3 4 9 11 13 14 17 19 21 22 
 23 25 27 33 34 38 39 40 41 42 43 52 
 59 62 
 14 
 1 13 15 19 24 29 30 31 39 48 51 52 
 55 59 
 13 
 5 17 21 24 31 32 36 37 49 50 51 59 
 62 
 50 
 1 2 3 4 5 7 8 9 10 11 14 15 
 16 17 18 20 21 22 23 24 25 26 27 30 
 32 36 37 39 40 41 42 43 45 47 48 49 
 50 52 53 54 55 56 57 58 60 61 62 63 
 64 65 
 39 
 1 2 5 6 8 9 10 12 16 19 22 24 
 26 27 28 30 33 35 36 37 42 43 44 45 
 46 47 48 49 50 52 53 54 55 56 57 61 
 62 63 64 
 28 
 3 9 13 14 15 19 21 24 26 27 28 29 
 30 31 34 35 36 43 44 46 48 50 51 53 
 58 60 62 65 
 34 
 2 3 5 7 11 13 16 17 20 22 26 27 
 28 29 30 31 32 33 35 38 40 41 42 45 
 46 47 49 50 52 53 56 60 61 63 
 9 
 1 19 20 23 28 29 39 61 65 
 27 
 2 6 7 11 16 18 19 20 21 24 26 29 
 34 35 38 43 45 46 49 50 51 54 55 57 
 58 62 65 
 59 
 1 2 4 6 7 8 9 10 11 12 13 14 
 15 16 17 18 19 20 21 23 24 25 26 27 
 28 29 30 31 32 33 34 35 36 37 38 39 
 41 42 43 44 45 46 47 48 49 50 51 53 
 54 55 56 57 58 59 60 61 63 64 65 
 7 
 23 37 42 47 55 56 59 
 2 
 19 52 
 39 
 1 2 7 8 11 13 14 15 17 18 19 20 
 21 24 25 27 28 29 30 31 34 36 37 38 
 40 41 42 43 44 45 46 47 48 49 50 53 
 58 62 65 
 58 
 1 2 3 4 5 6 7 8 9 10 11 12 
 13 17 18 19 20 21 22 23 24 26 27 28 
 30 31 32 33 34 35 37 38 39 40 41 42 
 43 44 45 46 47 48 49 50 51 52 53 54 
 55 56 58 59 60 61 62 63 64 65 
 65 
 1 2 3 4 5 6 7 8 9 10 11 12 
 13 14 15 16 17 18 19 20 21 22 23 24 
 25 26 27 28 29 30 31 32 33 34 35 36 
 37 38 39 40 41 42 43 44 45 46 47 48 
 49 50 51 52 53 54 55 56 57 58 59 60 
 61 62 63 64 65 
 48 
 2 3 5 6 8 9 11 12 13 14 16 17 
 18 19 20 21 22 23 26 27 28 29 30 31 
 32 33 34 35 36 37 38 40 42 43 44 46 
 47 48 50 51 53 56 57 58 60 61 62 64 
 50 
 1 3 4 5 6 7 8 9 10 11 12 13 
 14 15 16 17 18 20 22 23 27 28 29 30 
 31 32 33 34 35 36 37 38 40 42 43 46 
 48 49 50 52 53 54 55 56 57 58 59 62 
 63 64 
 12 
 1 10 14 21 24 28 30 36 37 45 49 53 
 21 
 3 4 12 14 17 19 20 22 23 27 28 29 
 31 35 39 40 46 47 50 56 61 
 42 
 1 3 4 5 6 7 8 10 11 12 13 16 
 17 18 21 22 23 24 25 26 29 33 34 35 
 36 37 38 40 41 42 44 48 51 53 54 55 
 56 60 62 63 64 65 
 6 
 4 17 18 32 37 39 
 59 
 1 2 3 4 5 6 7 8 9 10 11 12 
 13 14 15 16 17 18 19 20 21 22 23 24 
 25 26 27 28 29 31 32 33 34 35 36 37 
 38 40 41 42 43 44 45 46 48 49 50 51 
 53 54 55 56 58 59 60 61 62 64 65 
 54 
 1 2 4 5 6 7 8 9 11 13 15 16 
 17 18 19 20 21 22 23 25 26 27 28 29 
 30 31 32 33 34 35 36 38 39 40 41 42 
 43 44 45 46 47 49 50 52 53 55 57 58 
 59 60 62 63 64 65 
 38 
 1 2 3 4 5 6 7 9 10 11 12 14 
 16 18 20 23 24 28 30 31 33 34 35 38 
 39 40 41 43 47 50 51 52 53 54 55 57 
 58 60 
 25 
 3 5 6 7 8 9 10 12 14 15 16 19 
 23 27 28 30 32 38 41 45 46 51 57 59 
 65 
 41 
 4 5 7 8 9 10 11 13 14 15 17 19 
 20 21 22 26 27 28 29 30 32 34 35 39 
 40 41 45 48 49 51 52 53 55 56 58 59 
 60 61 62 64 65 
 52 
 1 2 3 5 6 7 8 9 10 12 13 14 
 15 16 17 18 19 20 21 22 23 25 26 27 
 31 32 34 35 36 37 38 39 41 42 44 45 
 46 48 49 50 51 52 54 55 56 58 59 60 
 62 63 64 65 
 11 
 2 6 10 15 16 20 26 27 51 52 64 
 11 
 4 9 23 24 25 27 32 37 42 54 61 
 5 
 15 25 38 42 47 
 45 
 1 2 5 6 7 9 10 12 13 14 15 17 
 18 19 20 21 22 23 25 26 27 28 29 31 
 32 33 34 35 36 37 39 41 42 43 44 46 
 47 48 49 51 60 61 62 63 64 
 46 
 1 2 5 6 7 8 9 12 15 16 18 19 
 20 22 23 24 25 26 27 28 29 30 31 33 
 34 35 39 40 41 44 46 48 49 50 51 52 
 53 54 55 56 57 60 62 63 64 65 
 32 
 1 2 3 4 7 8 12 13 14 16 18 19 
 20 21 22 24 27 33 35 37 39 40 44 48 
 49 50 52 57 59 60 61 65 
 30 
 5 8 9 11 16 17 18 22 23 24 25 26 
 27 28 29 30 32 33 35 37 38 47 51 53 
 54 57 58 60 61 62 
 60 
 1 2 3 4 6 7 8 9 10 11 12 13 
 14 15 16 17 18 19 20 21 22 23 24 25 
 26 27 28 29 30 32 33 34 35 36 37 39 
 40 41 42 43 44 45 46 47 48 50 51 52 
 53 54 55 56 57 58 59 60 61 63 64 65 
 24 
 2 9 12 16 17 19 22 25 28 29 30 31 
 33 35 39 46 48 51 52 54 58 59 61 63 
 24 
 1 3 4 6 8 11 12 13 17 22 24 30 
 35 36 37 39 41 42 47 54 59 62 64 65 
 44 
 1 2 3 4 5 7 8 9 10 11 13 15 
 17 18 20 21 22 23 24 25 26 27 32 33 
 35 36 38 39 40 42 44 45 46 47 50 52 
 55 56 57 58 60 63 64 65 
 33 
 2 5 6 7 10 11 12 13 14 16 17 18 
 19 21 22 23 27 29 34 38 40 41 42 43 
 44 46 49 52 55 56 58 59 60 
 25 
 1 6 7 10 12 13 14 16 18 23 25 29 
 31 36 40 41 44 45 46 48 51 52 53 63 
 64 
 54 
 1 2 3 4 5 6 7 8 9 10 11 12 
 14 17 18 19 21 22 23 24 25 26 27 28 
 29 30 32 33 35 36 37 39 40 41 43 44 
 45 46 47 48 49 50 51 52 53 54 55 56 
 57 58 59 61 62 64 
 44 
 1 2 3 4 5 6 7 9 10 13 14 16 
 17 18 19 21 23 24 27 28 29 30 31 35 
 36 38 39 40 42 43 44 46 47 48 50 51 
 53 55 56 57 59 60 61 62 
 31 
 1 3 5 9 10 12 14 16 17 18 19 22 
 23 25 26 38 42 45 46 47 49 50 51 52 
 53 54 58 60 61 62 64 
 28 
 2 5 6 9 10 11 15 16 17 19 27 28 
 31 32 34 36 38 44 46 47 50 54 56 57 
 58 59 63 65 
 18 
 2 3 5 13 29 34 36 38 39 40 44 48 
 50 57 58 59 63 65 
 57 
 1 2 3 4 5 6 7 8 9 10 11 12 
 13 14 15 16 17 18 19 20 21 23 24 25 
 26 27 28 29 30 32 33 34 37 39 40 41 
 42 43 44 45 46 47 48 50 51 52 53 54 
 55 56 58 59 61 62 63 64 65 
 19 
 6 7 8 9 17 25 29 30 35 36 38 41 
 45 49 50 56 58 61 64 
 60 
 1 2 3 4 5 6 7 8 9 10 11 12 
 13 14 15 16 17 18 19 20 21 23 24 25 
 26 27 28 29 30 31 33 34 35 36 37 38 
 39 40 41 43 44 45 46 48 49 51 52 53 
 54 55 56 57 58 59 60 61 62 63 64 65 
 41 
 1 2 3 4 6 7 8 10 11 12 13 14 
 19 20 21 23 24 25 28 29 30 31 33 34 
 35 38 39 40 41 42 44 46 47 48 49 51 
 52 55 58 59 64 
 20 
 1 5 9 12 17 18 22 23 24 25 29 33 
 35 37 41 42 46 54 55 63 
 47 
 1 2 3 4 5 6 8 9 10 12 14 17 
 18 19 20 21 24 25 26 27 28 29 30 32 
 33 34 37 38 39 40 41 43 44 46 47 49 
 50 52 53 54 55 57 58 62 63 64 65 
 31 
 1 2 3 6 7 8 9 10 12 16 17 20 
 22 24 25 26 27 29 32 37 39 41 44 46 
 49 52 58 60 61 64 65 
 34 
 2 3 5 6 9 10 12 13 15 18 20 21 
 22 23 28 30 31 32 33 34 38 41 42 45 
 49 50 54 55 58 59 60 61 64 65 
 62 
 1 3 4 5 6 7 8 9 10 11 12 13 
 14 15 16 17 18 19 20 21 22 23 24 25 
 27 28 29 30 31 32 33 34 35 36 37 38 
 39 40 41 42 43 44 45 46 47 49 50 51 
 52 53 54 55 56 57 58 59 60 61 62 63 
 64 65 
 12 
 4 7 15 21 23 27 34 45 48 50 54 65 
 31 
 6 11 12 18 19 20 21 22 25 26 28 29 
 30 32 33 35 40 42 43 44 49 50 51 52 
 53 55 56 57 59 60 64 
 6 
 7 20 29 48 49 59 
 45 
 1 2 4 5 6 7 8 9 10 14 15 17 
 19 21 22 24 26 27 28 29 30 31 32 33 
 34 35 37 39 40 41 42 43 44 45 46 47 
 48 49 52 53 56 59 60 61 62 
 33 
 1 7 11 12 14 16 17 18 20 21 22 23 
 24 28 30 32 33 35 36 37 40 41 42 43 
 46 47 50 52 53 55 58 60 63 
 41 
 1 4 6 10 11 12 14 15 16 17 18 19 
 21 25 27 29 30 32 34 35 37 39 40 41 
 42 43 44 45 46 47 48 51 52 55 56 58 
 59 60 61 62 64 
 46 
 1 2 3 5 6 7 8 9 10 11 12 13 
 15 16 17 18 19 20 23 24 25 26 27 28 
 30 31 32 33 36 37 40 41 42 44 45 46 
 49 51 54 55 56 57 59 60 62 65 
 21 
 4 8 9 10 11 13 14 16 18 20 24 27 
 31 32 36 39 48 53 56 57 62 
 26 
 3 5 6 9 15 16 19 20 23 25 29 30 
 33 34 35 36 41 42 43 46 49 50 53 56 
 57 60 
 9 
 3 5 16 20 30 34 49 59 64 
 19 
 6 9 17 21 23 30 31 33 35 38 40 41 
 44 46 53 57 59 63 64 
 38 
 5 6 9 10 12 13 14 15 18 19 20 24 
 25 27 28 29 31 32 36 37 38 40 42 45 
 46 47 49 50 51 52 54 56 57 58 59 60 
 62 63 
 62 
 1 2 3 4 5 6 7 8 9 10 11 12 
 13 14 15 16 17 18 19 20 22 23 24 25 
 26 27 28 29 30 31 32 33 34 35 36 37 
 38 39 40 41 42 43 45 46 47 48 49 50 
 51 52 53 54 55 56 57 58 59 60 61 62 
 63 64 
 8 
 2 24 29 30 38 43 50 57 
 60 
 1 2 3 4 5 6 7 8 9 10 11 13 
 14 15 16 17 18 19 21 22 23 24 25 26 
 27 28 30 31 33 34 35 36 37 38 39 40 
 41 42 43 44 45 46 47 48 49 50 51 53 
 54 55 56 57 58 59 60 61 62 63 64 65 
 20 
 2 6 11 14 16 19 24 26 27 34 37 39 
 41 42 44 46 50 56 61 63 
 11 
 1 5 12 19 34 35 46 48 51 63 65 
 28 
 3 5 6 10 15 18 19 25 27 31 32 33 
 34 37 42 43 44 46 49 50 51 56 57 59 
 60 62 63 65 
 42 
 1 2 4 7 9 10 12 14 15 16 17 18 
 20 22 24 25 26 27 28 29 30 31 38 39 
 40 41 42 43 45 46 47 48 51 52 53 54 
 56 57 59 60 62 63 
 17 
 1 2 5 16 23 28 32 33 34 35 44 46 
 50 57 59 60 64 
 31 
 1 4 8 9 10 11 13 14 16 17 19 21 
 22 26 31 32 33 37 39 42 43 46 51 52 
 55 58 59 61 62 63 64 
 19 
 5 6 7 8 19 20 21 23 25 31 34 38 
 41 43 44 47 57 58 65 
 52 
 1 3 4 5 6 8 9 10 11 13 14 15 
 17 18 19 20 21 22 23 27 28 29 32 33 
 34 35 36 37 39 40 41 42 43 44 45 47 
 48 50 51 52 53 54 56 57 58 59 60 61 
 62 63 64 65 
 24 
 9 10 12 15 19 20 21 26 27 29 30 34 
 35 37 38 39 40 41 44 47 48 53 56 65 
 25 
 1 5 8 9 11 14 16 22 23 27 29 34 
 35 36 39 40 46 49 50 54 55 57 58 59 
 64 
 29 
 1 2 3 4 5 12 13 14 18 19 21 22 
 23 24 31 35 37 38 40 41 42 47 48 56 
 58 59 60 62 63 
 17 
 2 10 16 17 19 21 22 23 27 33 42 43 
 45 51 52 56 60 
 46 
 1 4 5 6 7 9 10 12 13 14 15 16 
 17 18 19 20 22 23 24 25 26 27 30 31 
 32 33 34 35 36 39 43 44 45 46 47 48 
 52 53 55 56 57 59 60 61 64 65 
 40 
 2 3 4 5 6 9 10 11 12 13 14 20 
 21 24 25 31 32 33 34 35 38 39 41 42 
 43 44 46 47 48 49 51 52 54 58 59 60 
 62 63 64 65 
 25 
 3 4 5 6 7 10 14 15 16 18 21 22 
 30 31 33 35 39 42 43 46 48 53 55 57 
 60 
 63 
 1 2 3 4 5 6 7 8 9 10 11 12 
 13 14 15 16 17 18 19 20 21 23 24 25 
 26 27 28 29 30 32 33 34 35 36 37 38 
 39 40 41 42 43 44 45 46 47 48 49 50 
 51 52 53 54 55 56 57 58 59 60 61 62 
 63 64 65 
 27 
 8 12 13 17 19 21 22 28 29 30 31 33 
 34 37 41 42 47 48 49 51 52 57 58 60 
 62 64 65 
 45 
 1 2 4 5 7 8 9 11 12 13 17 18 
 19 21 22 23 24 25 26 28 30 32 34 38 
 40 41 42 45 46 47 48 49 50 51 54 55 
 57 58 59 60 61 62 63 64 65 
 15 
 3 7 8 13 15 21 22 23 29 35 37 39 
 42 59 63 
 52 
 1 2 4 5 6 7 8 10 11 12 13 14 
 15 17 18 19 20 21 22 24 25 26 30 31 
 32 33 34 35 36 37 38 39 42 43 44 45 
 46 48 49 50 51 53 55 56 57 58 59 60 
 62 63 64 65 
 9 
 4 23 36 39 47 50 59 62 63 
 13 
 3 12 16 21 25 27 31 42 44 48 53 60 
 64 
 51 
 1 2 5 6 7 8 9 10 11 12 13 14 
 15 16 17 18 20 21 23 25 26 28 29 30 
 31 32 33 34 35 36 39 40 41 43 44 45 
 46 47 48 50 51 52 53 54 55 56 57 60 
 61 62 63 
 6 
 8 15 24 36 41 48 
 31 
 6 8 11 13 14 15 16 19 20 23 26 30 
 31 32 33 35 36 39 40 42 43 47 48 49 
 52 53 54 57 62 63 64 
 12 
 4 5 8 9 18 23 32 39 55 56 64 65 
 41 
 1 2 7 9 11 15 16 17 20 21 22 23 
 26 30 32 33 35 36 37 38 39 40 41 42 
 43 45 46 48 49 50 52 53 54 55 57 59 
 61 62 63 64 65 
 19 
 4 9 11 15 16 20 22 24 28 32 34 36 
 37 40 50 55 59 60 62 
 58 
 1 3 4 5 6 7 9 10 13 14 15 16 
 17 18 20 21 22 23 24 25 26 27 29 30 
 31 32 33 34 35 36 37 38 39 40 41 42 
 43 44 45 46 47 48 49 50 51 52 53 54 
 55 56 57 58 59 60 61 62 63 65 
 6 
 22 28 31 52 57 62 
 36 
 1 2 4 5 8 9 11 12 15 16 17 18 
 19 20 21 22 23 26 30 32 33 35 36 37 
 38 44 50 51 53 54 55 57 59 60 61 63 
 36 
 3 4 6 8 9 11 14 15 18 19 22 23 
 24 25 26 28 29 31 33 34 36 37 41 42 
 43 44 45 47 48 49 52 53 58 59 61 62 
 8 
 12 23 24 37 48 50 52 61 
 37 
 1 2 4 5 8 10 12 13 14 17 18 19 
 22 23 27 28 31 34 35 36 37 39 42 46 
 47 49 50 51 52 53 54 55 56 57 61 64 
 65 
 62 
 1 2 3 4 5 6 7 8 9 10 11 12 
 13 14 15 16 17 18 19 20 21 22 23 24 
 25 26 27 28 29 30 31 32 33 34 35 36 
 37 38 39 40 41 42 43 44 45 46 48 49 
 50 51 52 53 54 55 57 58 59 60 61 63 
 64 65 
 42 
 2 3 4 6 8 10 11 12 13 14 17 19 
 20 22 25 27 28 30 31 33 34 35 37 38 
 39 42 43 45 47 50 52 53 54 55 56 57 
 58 60 62 63 64 65 
 65 
 1 2 3 4 5 6 7 8 9 10 11 12 
 13 14 15 16 17 18 19 20 21 22 23 24 
 25 26 27 28 29 30 31 32 33 34 35 36 
 37 38 39 40 41 42 43 44 45 46 47 48 
 49 50 51 52 53 54 55 56 57 58 59 60 
 61 62 63 64 65 
 11 
 3 13 20 21 38 41 43 47 53 60 65 
 5 
 11 29 34 57 61 
 34 
 2 5 8 9 11 14 15 16 17 18 22 23 
 24 28 29 30 31 34 35 36 37 38 39 43 
 45 47 48 51 55 59 62 63 64 65 
 25 
 5 7 8 11 12 13 14 17 21 23 24 26 
 27 30 32 33 35 41 43 44 49 50 52 57 
 64 
 65 
 1 2 3 4 5 6 7 8 9 10 11 12 
 13 14 15 16 17 18 19 20 21 22 23 24 
 25 26 27 28 29 30 31 32 33 34 35 36 
 37 38 39 40 41 42 43 44 45 46 47 48 
 49 50 51 52 53 54 55 56 57 58 59 60 
 61 62 63 64 65 
 19 
 5 6 8 10 17 20 21 26 28 32 33 39 
 41 43 47 48 59 60 64 
 47 
 1 3 5 6 7 8 9 10 11 12 13 14 
 16 18 19 20 21 22 23 27 28 29 30 31 
 32 33 34 35 36 37 38 39 43 44 45 46 
 47 49 50 52 53 57 59 60 61 63 64 
 17 
 1 2 10 11 15 21 23 28 41 49 52 53 
 55 61 62 63 65 
 27 
 2 3 6 7 8 12 17 18 20 24 28 31 
 34 35 39 43 44 46 47 51 52 53 55 57 
 58 59 61 
 31 
 1 2 4 8 15 16 17 21 24 25 26 28 
 30 31 32 34 36 39 41 42 43 44 45 47 
 48 51 53 60 62 63 64 
 53 
 1 2 3 4 5 6 7 8 9 10 11 12 
 13 14 16 17 19 20 21 23 24 25 26 27 
 28 29 32 33 34 35 36 38 39 43 44 45 
 46 47 48 50 51 52 53 54 56 57 58 59 
 60 61 63 64 65 
 65 
 1 2 3 4 5 6 7 8 9 10 11 12 
 13 14 15 16 17 18 19 20 21 22 23 24 
 25 26 27 28 29 30 31 32 33 34 35 36 
 37 38 39 40 41 42 43 44 45 46 47 48 
 49 50 51 52 53 54 55 56 57 58 59 60 
 61 62 63 64 65 
 60 
 1 2 3 4 5 6 7 8 9 10 11 12 
 13 14 15 16 17 18 19 20 21 22 23 24 
 25 26 27 29 30 31 32 33 35 36 37 38 
 40 41 42 43 44 45 46 47 48 50 51 52 
 53 54 55 56 57 58 60 61 62 63 64 65 
 46 
 1 5 6 8 9 10 11 12 13 15 16 20 
 21 22 23 28 29 31 32 33 34 35 36 37 
 38 39 41 42 43 46 47 49 50 51 52 53 
 54 55 57 58 59 60 62 63 64 65 
 22 
 1 2 3 9 10 11 14 19 29 30 31 34 
 35 39 40 41 43 46 48 52 61 65 
 52 
 1 2 3 4 5 6 7 8 9 10 11 12 
 13 14 16 17 18 19 20 21 22 23 24 25 
 26 27 29 30 33 34 37 38 39 40 42 43 
 45 46 47 48 49 50 52 53 56 57 58 59 
 60 61 63 65 
 15 
 1 8 14 15 18 20 29 34 35 40 52 60 
 61 63 65 
 62 
 1 2 4 5 6 7 8 9 10 11 12 13 
 14 15 16 17 18 19 20 21 22 23 24 25 
 26 27 28 29 30 31 32 33 34 35 37 38 
 39 40 41 43 44 45 46 47 48 49 50 51 
 52 53 54 55 56 57 58 59 60 61 62 63 
 64 65 
 55 
 1 2 3 4 5 6 8 9 11 12 13 15 
 16 18 19 20 21 22 23 24 25 27 28 29 
 30 31 32 33 34 36 37 38 39 40 41 43 
 45 47 49 50 51 52 53 54 55 56 57 58 
 59 60 61 62 63 64 65 
 4 
 34 42 49 51 
 4 
 1 13 24 49 
 59 
 1 2 3 4 5 6 7 8 9 10 11 14 
 15 16 17 18 19 20 21 22 23 24 25 26 
 27 28 29 30 31 32 34 35 36 37 38 39 
 40 41 42 43 44 45 46 47 48 49 50 51 
 52 53 55 56 57 58 60 61 62 63 65 
 